import numpy
''' We can generate the transposition of an array using the tool
    numpy.transpose'''
# numpy.transpose will not affect the original array, 
# but it will create a new array.
# It just like numpy.reshape, except ability.
''' The tool flatten creates a copy of the input array flattened 
    to one dimension.'''
# flatten() is one option of array.
dimen = list(map(int, input().split()))
arr_list = []
[arr_list.append(input().split()) for _ in range(dimen[0])]
arr = numpy.array(arr_list, int)
arr_tr = numpy.transpose(arr)
arr_flat = arr.flatten()
print(arr_tr, arr_flat, sep='\n')
'''
Output Format
First, print the transpose array and then print the flatten.
Sample Input
2 2
1 2
3 4
Sample Output
[[1 3]
 [2 4]]
[1 2 3 4]
'''